NAME : pr107Preorder.996.tour
COMMENT : Length = 996
COMMENT : Found by LKH [Keld Helsgaun] Fri Apr 24 15:28:05 2020
TYPE : TOUR
DIMENSION : 107
TOUR_SECTION
1
4
3
6
7
9
10
8
11
12
13
16
15
18
14
17
20
23
24
19
21
22
25
28
27
30
26
29
32
35
36
31
33
34
37
40
39
42
38
41
44
47
48
43
45
46
49
52
51
54
53
50
55
106
107
105
104
56
101
99
102
103
100
98
95
97
96
57
94
58
91
89
92
93
90
88
85
87
86
59
84
60
79
81
82
83
80
78
75
77
76
61
74
62
73
70
71
72
69
67
68
65
64
66
63
5
2
-1
EOF
